Traveling Salesman Problem/TSP_generados/Aleatorio1621103262_7.tsp
NAME: Aleatorio1621103262_7.tsp
COMMENT: Randomly generated scenario
TYPE: TSP
DIMENSION: 7
EDGE_WEIGHT_TYPE: ATT
NODE_COORD_SECTION
1 14.75 3.91
2 2.01 1.73
3 26.82 49.44
4 46.78 17.85
5 22.92 42.29
6 13.14 42.25
7 15.74 18.55
