Traveling Salesman Problem/TSP_generados/Aleatorio1621103262_7.opt.tour
NAME: Aleatorio1621103262_7.opt.tour
COMMENT: Optimal solution for Aleatorio1621103262_7 (148.7037412529057)
TYPE: TOUR
DIMENSION: 7
TOUR_SECTION
1 2 7 6 5 3 4
-1
EOF
